7731
7428
7269
4414
3721
4062
2152
4565
8996
7480
9789
7140
9156
590
8365
3706
462
5185
6075
8910
2977
8745
8005
9221
8132
2970
4431
5051
9917
5249
4307
2641
2219
8170
1954
3933
6460
4197
2346
1437
6347
2354
2782
3700
7791
2950
8850
4333
9737
4950
3550
